1356
0 97 107 190 234 249 341 411 542 647 
8 71 110 190 212 300 362 447 500 624 
71 123 145 234 302 329 439 493 574 659 
123 178 263 329 464 598 609 743 799 941 
154 341 447 592 670 747 872 970 1050 1099 
0 97 251 295 397 457 542 678 826 879 
295 329 409 609 799 810 846 879 977 984 
329 534 539 624 675 747 846 977 1042 1128 
373 397 539 859 936 1025 1099 1162 1179 1272 
397 448 453 587 675 733 791 970 1139 1168 
